p cnf 100 160
-32 24 -14 0
-27 85 8 0
64 -86 56 0
68 -24 38 0
-2 -98 14 0
-98 70 -29 0
36 96 11 0
7 -97 82 0
-33 99 -73 0
13 -77 90 0
-48 72 -85 0
-57 -6 -55 0
-6 -30 85 0
87 -42 80 0
-73 -93 84 0
-23 75 1 0
-36 -32 -59 0
32 66 -1 0
59 -48 30 0
-7 -54 -4 0
-65 -19 -7 0
-41 51 -96 0
50 86 -94 0
-1 -42 -27 0
55 66 68 0
-6 92 -81 0
21 35 79 0
-35 -34 -3 0
20 63 73 0
51 84 44 0
40 34 -49 0
-10 -39 -63 0
-39 10 98 0
45 -59 16 0
-28 70 69 0
63 68 -92 0
-92 -100 -24 0
54 -47 -60 0
-48 93 -55 0
-59 51 -35 0
-40 -30 11 0
91 -19 50 0
82 71 -79 0
-61 28 1 0
-64 17 -12 0
17 16 5 0
-74 22 -8 0
9 14 -1 0
61 30 -20 0
-66 61 29 0
-53 92 41 0
-84 98 52 0
74 -64 -81 0
-54 -39 -9 0
-40 -68 -13 0
35 -45 -84 0
-15 -91 -19 0
7 -43 27 0
-22 86 54 0
-53 44 22 0
-28 92 -58 0
-62 78 -34 0
-90 39 54 0
12 -43 -98 0
100 55 -28 0
-23 -20 60 0
-45 -28 -23 0
18 15 91 0
92 50 34 0
81 62 67 0
57 -44 -64 0
71 96 -24 0
-69 53 -1 0
-94 34 33 0
-48 -38 -79 0
49 29 -10 0
-40 -79 74 0
28 -48 -6 0
29 64 17 0
-30 -66 88 0
61 6 -60 0
47 81 8 0
-59 32 -48 0
-16 19 -25 0
-42 -99 73 0
-58 -44 -3 0
-78 28 82 0
-56 -82 69 0
-34 30 32 0
42 -6 -70 0
12 94 -15 0
-6 5 84 0
37 -90 -26 0
23 91 -77 0
6 63 76 0
-85 90 80 0
80 13 1 0
94 88 96 0
87 16 93 0
-48 88 92 0
x -2 -3 4 -7 -10 -12 14 -16 25 -26 27 -30 -31 -33 36 -37 -38 39 42 43 -45 46 52 -53 -56 57 61 -62 -63 -64 65 -66 68 69 -70 71 73 -75 77 -78 79 83 87 89 -90 92 94 -95 97 -98 -100 0
x -2 4 6 -8 10 14 -15 -16 17 -19 22 25 -26 29 30 -31 33 -34 35 36 37 -39 41 43 -44 -47 52 -53 -54 58 59 -61 -64 67 -68 -70 -71 73 -74 75 -76 -78 -79 -81 -82 83 84 -85 -86 -87 -92 -93 -94 100 0
x -1 -2 -4 5 11 -15 17 18 -19 21 22 24 -25 -27 30 31 -32 36 38 -45 46 47 -48 50 53 60 61 62 -66 68 69 -73 76 -77 78 -79 -80 84 -89 92 93 94 95 -96 -97 0
x -1 2 -3 -6 7 9 -13 14 15 -18 19 21 23 24 25 26 28 30 -31 -32 34 35 -36 37 -38 -39 -41 43 47 -49 -50 51 -52 54 -56 -57 -61 -62 66 -67 69 70 72 -79 82 -84 86 87 -91 -92 -94 -97 99 0
x -2 -3 4 -6 -7 -10 -12 13 15 -19 -20 21 22 -23 -27 -28 -29 -38 -40 -42 43 45 -47 48 51 -55 -57 61 63 -64 65 -67 69 -71 -72 75 76 77 -78 -81 83 -85 89 90 -92 -93 94 97 -98 100 0
x 1 2 3 -5 12 -15 -17 18 19 22 -27 -28 29 30 31 -34 35 -36 -38 -39 -41 44 -45 46 47 49 50 -51 53 -54 -55 56 -57 60 -61 -66 68 -73 75 -76 -77 -78 80 -81 85 89 93 96 -100 0
x -3 4 5 6 7 8 9 -10 14 18 -21 -23 -24 27 30 31 -34 35 37 -38 -39 40 -42 44 47 48 49 50 -52 -56 -59 60 -61 64 66 -67 72 74 -75 77 78 -79 -80 -84 86 87 89 -91 92 -95 -96 -98 -99 100 0
x 1 2 5 -8 9 -15 16 17 19 22 -23 -24 27 30 33 34 36 37 40 -45 46 49 -50 -52 -58 61 63 -65 -67 -69 -73 -76 -77 -79 81 82 83 87 -88 90 91 92 -93 94 95 -97 98 -100 0
x -2 8 -9 -10 13 -14 -18 20 22 -23 24 -26 -31 33 -36 -37 -39 -41 -42 44 47 50 -51 52 53 -56 58 -60 64 65 67 -68 71 -72 73 81 82 -83 84 -85 -86 87 94 -97 100 0
x -2 -3 -6 7 -9 11 -12 15 19 -22 -23 25 -26 -27 29 -30 -33 34 -35 -36 40 41 42 -45 48 -49 -50 -53 -57 -59 60 64 -65 66 -67 68 71 -73 74 -79 80 82 -83 85 -86 -87 -88 -96 97 99 0
x 1 -4 5 6 -7 -11 12 -13 14 15 -17 -19 -22 26 30 32 -36 37 40 -43 -44 -45 -46 -48 -50 -52 54 -55 -56 -57 -58 60 -67 68 -75 -77 -80 -81 82 85 -86 87 90 91 -92 95 96 98 99 0
x -6 8 9 12 13 -14 16 -17 -21 -22 23 -24 25 -26 -27 -32 -35 -37 41 -43 44 -45 53 54 -55 -57 -59 -61 66 67 -68 -70 -74 77 -79 -80 81 -82 -83 -86 -87 91 97 0
x -5 -7 -9 13 -14 -15 16 -19 21 -22 -23 -25 28 32 -36 38 39 40 -42 -43 -44 -46 -47 50 52 53 55 -62 -64 -67 69 70 -72 -73 75 -82 83 -86 89 -96 -98 99 -100 0
x -3 7 8 11 -13 14 -16 -19 -20 -21 -23 -27 -29 30 -34 36 -37 38 43 47 -50 51 52 55 57 -58 -59 60 -61 -62 -64 -67 70 -71 -72 74 76 79 -82 83 -85 86 -88 -90 -92 93 96 -97 -99 100 0
x 4 -7 -13 -19 -20 25 -26 -29 30 31 -32 -36 38 -43 44 45 46 -47 51 52 -58 -59 60 -61 -63 -64 -65 -66 -67 71 -72 -74 75 -76 -80 82 -84 -86 89 94 -99 100 0
x 3 4 -5 -6 7 -9 -10 12 -13 15 18 -19 20 -25 26 -28 29 -30 -31 33 34 43 -45 46 -47 50 -56 58 60 61 -63 -64 -65 -67 -68 69 -74 75 -78 79 81 82 -83 84 85 -86 -88 89 91 96 0
x -1 2 3 4 6 7 -8 9 10 -11 13 -14 -17 18 19 -22 -25 -27 29 -32 33 34 -37 -38 40 -41 -42 -43 -46 47 -48 49 52 53 -54 56 -57 58 61 -64 -66 -67 -68 -69 74 -75 76 77 -80 -81 82 83 84 90 -92 95 -96 -97 98 0
x 4 -5 6 -8 -9 12 13 -14 16 19 21 -23 24 -26 -27 -32 -33 -34 37 -39 41 -42 43 46 47 -48 50 51 -52 -54 55 -57 58 65 66 -68 -69 72 -73 -74 75 76 -78 -85 86 -88 -90 -100 0
x 3 5 -6 7 8 -9 10 -11 -12 14 15 -16 17 -18 19 -20 22 -23 -24 -26 27 28 29 30 -31 -32 33 -35 -37 -38 39 -40 42 -43 44 45 -46 -47 48 -49 50 -51 56 57 -60 62 -63 70 71 73 74 77 -80 -81 -82 -83 84 -85 -87 -91 -94 97 -98 -100 0
x -1 3 4 10 -12 -13 15 16 -18 20 22 26 27 -29 -31 34 36 37 39 -41 43 -44 -45 46 -49 51 52 -53 -54 55 56 -57 59 -61 -63 66 67 -69 -73 78 -80 81 -82 -84 85 86 88 -89 -91 94 95 -96 -97 98 -100 0
x -3 -4 7 -8 11 13 -16 -17 -18 20 21 -22 -25 -26 27 -29 31 32 -33 -41 -47 48 -52 -53 57 -58 59 -60 -61 63 -64 -66 67 68 70 72 74 -75 -76 -80 81 -83 -84 85 -87 88 -89 -91 -92 -94 96 -98 99 100 0
x 3 -5 6 -9 -13 14 -18 -20 -24 -25 29 -38 -39 -40 -42 44 45 -46 47 -48 53 54 -56 -61 67 68 -70 73 75 -77 81 87 88 -89 90 94 -97 -98 -99 0
x 2 3 4 -6 -8 -10 -11 -14 -15 -16 -24 27 -30 32 35 -36 37 -39 -40 -42 45 -46 -47 -48 50 -51 53 54 55 58 61 -64 -65 67 69 70 73 -75 76 80 -81 82 -83 -84 85 -86 -88 89 -90 -94 -100 0
x -1 5 6 -10 -11 -13 -14 15 16 -17 18 -19 -20 -21 26 -27 -28 -29 30 -31 -39 40 -43 -46 49 -51 52 57 -58 59 -61 62 63 64 -67 70 -71 -74 -75 -77 -85 -87 89 -91 92 -95 97 98 -100 0
x 3 -4 -7 -8 9 13 -14 16 -18 21 -22 -26 28 29 -30 -32 -33 34 36 -37 44 -45 -46 -48 -49 50 -54 -57 59 60 -63 -64 -65 -66 -68 72 73 -76 77 -79 -80 81 -83 -86 88 91 -93 94 -99 100 0
x -1 5 -7 -8 -9 -10 12 16 -22 23 25 -29 -30 31 -32 33 35 -36 -37 -42 45 -46 48 -50 51 55 56 58 -63 66 -68 69 -71 -74 75 81 82 83 86 -89 90 -95 -96 -98 100 0
x -1 -2 -8 -9 10 -11 12 13 14 -15 17 -18 20 21 25 -26 -27 31 34 37 -39 -41 -43 -44 45 48 -50 52 -53 55 -56 -62 64 -66 -67 71 -76 77 80 -81 82 84 -85 -86 88 90 -91 -92 -97 0
x -1 -2 5 6 7 8 9 10 16 -17 18 19 20 21 22 -25 26 28 -31 35 -36 -37 -38 39 -45 -49 -51 -52 -53 -54 55 -57 -58 -59 62 -65 66 67 -69 -71 74 76 -77 -79 80 -81 -82 -83 84 86 89 -90 -91 97 100 0
x -2 -3 4 -6 -8 -9 10 -14 -16 -17 -20 21 22 -23 24 27 -28 -29 -30 -32 -36 -38 -40 42 43 -45 48 -49 50 53 -54 -55 56 57 -58 59 -61 -63 65 67 69 -70 71 74 -76 77 78 79 81 -84 86 87 89 -90 91 96 100 0
x 1 3 -4 -9 -11 14 16 -19 -25 31 -33 35 -36 37 38 -39 -41 44 -46 -47 -48 -52 -53 -57 -58 60 -61 -63 66 69 -70 -72 74 -77 -79 -80 -86 -88 -89 92 93 -94 0
x 2 4 7 9 -10 -14 15 17 21 -23 27 29 -30 34 -35 37 -38 -39 40 41 -42 44 -45 49 -53 56 57 -59 60 -61 62 -67 -68 70 72 -73 -77 78 -79 84 -85 -88 89 -90 91 -94 -95 -99 0
x 4 -5 6 7 -9 10 -11 14 15 -17 -18 25 28 29 -30 -31 -37 -38 -40 -43 -46 48 -50 53 54 62 63 65 68 -69 74 -75 -77 83 88 89 93 94 98 99 -100 0
x 1 -2 -5 6 7 10 11 -16 -23 25 -26 29 30 32 -40 -41 44 -45 46 -47 -51 -52 -53 54 -55 -56 57 59 61 -63 -66 -67 -69 70 -71 -73 -75 -78 79 -80 82 84 -85 -86 88 -91 -92 95 -96 98 -99 100 0
x -1 2 -3 -7 -9 11 -12 -15 -19 21 -23 24 25 26 -27 -29 -37 38 -39 -41 42 44 46 -48 50 51 55 -57 -63 -65 66 67 68 69 -70 71 72 -73 -74 -80 83 84 85 -87 -89 90 92 94 -95 96 -97 -98 99 0
x 1 -5 12 14 15 18 20 21 -23 -26 29 30 31 -33 -35 38 39 -40 41 44 -49 -50 51 -52 53 55 -56 57 59 -60 -63 -64 -65 -68 -73 75 -78 82 -85 -88 -89 90 -95 97 -99 0
x 1 2 3 -4 5 -8 11 -12 13 15 -16 -22 23 28 29 -31 32 37 -38 -39 42 -46 48 50 54 57 58 -59 60 62 -63 64 65 69 70 71 -72 73 78 -79 -80 81 -83 -84 -85 -87 -91 93 97 0
x 1 -2 -4 -6 9 10 -11 12 16 -17 18 -20 22 -31 32 36 -37 -38 -39 40 42 -44 -45 47 51 52 54 -57 -59 -61 62 -70 71 -72 80 -81 -82 83 -88 -89 -90 91 92 -94 -95 96 98 100 0
x -4 -5 7 -8 -9 -11 -12 14 15 -16 18 19 -24 32 -33 34 36 38 39 43 46 -47 -49 -52 55 -57 60 -62 64 -66 -69 -70 71 72 -74 -77 79 -80 -81 82 -83 85 -86 88 89 91 92 93 -94 95 96 97 -98 -99 100 0
x -2 4 7 -8 -10 -11 -14 -15 -16 17 20 23 -24 25 -29 34 -35 -36 -37 -38 40 -42 43 -45 47 -48 49 51 54 -56 -57 64 65 67 68 69 -70 -71 72 73 -74 82 -83 -84 -85 88 -90 92 0
x 1 -5 6 -9 10 12 -16 20 22 -24 -25 26 -27 -28 -30 31 -33 -34 -36 42 44 46 -47 -48 51 53 54 -55 -56 57 -58 -59 62 64 -65 -67 -70 -71 72 -74 -75 -77 78 -79 80 82 -83 -87 88 -90 -91 94 97 -98 -100 0
x -3 -5 8 -9 10 11 -13 -14 16 19 -21 -27 -28 -29 30 31 33 34 -36 -37 38 -39 40 42 49 50 -51 -52 55 -56 -60 61 -63 68 -69 -70 71 72 -79 87 -88 -89 -90 94 -98 0
x 2 5 7 -8 11 12 14 16 -17 -19 -21 23 24 26 -28 -30 32 33 35 -36 38 -39 40 41 -46 49 -55 57 59 -61 -65 67 -68 71 73 74 75 -78 79 -80 83 -84 85 87 90 -91 92 93 94 96 -100 0
x 1 -3 -7 8 -10 11 -12 -16 20 -21 22 23 -24 -25 -26 30 31 32 33 34 35 -36 37 -38 -39 41 43 45 -46 -49 -51 -52 53 61 63 64 -65 -66 68 69 -70 -72 -73 74 -75 77 -79 -80 83 -85 86 89 -92 -93 0
x -1 3 -6 7 -8 -11 12 -14 -18 -19 21 25 29 -30 -36 -37 38 -39 -40 -45 46 47 49 51 -55 57 -64 -66 67 -68 70 75 77 78 -80 -81 -83 -84 -87 88 -90 -91 92 -93 94 -95 -98 99 0
x -3 5 6 -7 8 -11 13 16 17 19 -20 -23 -24 26 27 30 -32 34 36 37 -39 -42 44 45 -47 49 50 -51 -52 -53 -54 -57 -58 62 -63 -65 -67 69 72 -78 80 -81 -84 85 86 -87 88 -89 -90 92 -95 -96 97 -100 0
x 2 -6 9 11 -12 17 18 -19 -22 -23 24 25 -30 31 32 33 36 -38 39 -41 43 49 51 -52 -55 57 -58 59 -62 65 -67 71 -72 74 -76 -77 -78 -79 -81 -83 84 85 -86 -87 -89 -93 -99 -100 0
x 2 -5 7 -8 -9 -10 -11 16 -18 -19 20 -21 23 -24 -26 -30 -32 -33 34 -35 36 38 -39 -41 -46 -47 49 -54 56 58 -61 -63 -64 65 -67 -69 -70 -75 -77 78 79 81 -84 -86 -89 95 -96 97 -100 0
x 2 -4 5 8 -13 14 15 -16 -18 -21 23 25 -26 -28 -29 -31 -36 40 43 -44 -46 47 -48 -52 -53 55 57 -60 -63 -64 65 -66 71 72 75 -76 -79 80 82 -83 87 -88 89 94 95 -96 -98 -99 0
x -1 2 -3 4 5 -9 -17 18 20 21 23 -24 -28 -29 30 -31 -32 34 -37 -39 43 45 -49 -53 55 56 -62 -64 65 -69 70 -71 72 -73 74 -75 -76 -77 80 82 -85 93 -94 -95 97 99 100 0
x -6 7 9 11 -12 14 -16 17 19 -20 -21 22 27 28 30 31 32 34 35 -39 -41 42 47 -49 -51 57 58 59 60 61 -64 -66 67 69 70 -72 73 74 -76 -77 81 -84 -88 -93 -94 -99 100 0
x -4 -5 7 -8 -10 13 -14 -16 -17 -19 -20 26 -32 -33 34 -36 -41 44 -45 46 -53 56 -58 59 64 65 -66 -73 -74 -76 -79 80 81 83 87 -90 92 -93 -94 -95 98 -99 100 0
x -3 -7 -8 9 -10 15 -19 -20 21 -22 -24 25 -27 29 30 31 38 -44 47 -50 -51 52 -53 54 -57 59 61 -62 64 67 68 -69 -73 75 -77 78 -79 82 84 85 -86 -89 -90 91 96 -97 -99 -100 0
x 1 5 6 7 8 -9 -11 -13 16 18 -19 -20 23 24 27 31 -32 33 35 36 37 -38 39 -40 42 -43 44 -45 -46 51 -52 53 54 55 -56 -59 60 67 71 -74 -78 -79 80 -81 -84 -89 90 97 -99 -100 0
x -1 -7 -8 10 12 14 -16 18 21 24 25 -30 -31 32 -35 -37 38 40 -42 -43 48 -50 51 -54 56 57 58 59 -62 -66 -68 69 -71 73 -76 -78 79 -80 81 82 -87 90 -91 92 94 -98 -99 100 0
x 4 -6 -7 9 -11 -12 -15 -16 17 -18 19 -20 -23 -24 -25 -26 -29 34 -35 -37 39 -44 45 -47 49 -51 -53 -59 -60 -61 63 64 -66 68 -80 81 82 -84 86 87 -88 91 92 -94 -95 96 97 -100 0
x -1 3 4 -5 -8 -11 12 14 -15 -20 23 -25 -28 -31 34 35 -37 38 -39 40 -41 -42 48 50 53 56 63 67 69 -72 75 76 -78 80 -83 -84 -85 88 -89 -90 91 -93 -94 96 97 -98 0
x -1 -2 5 8 -9 11 -14 15 -16 -17 -19 -21 23 -25 -27 31 -34 -36 -37 38 42 44 -45 -47 50 52 -57 -61 63 64 -65 66 -69 -71 72 73 77 -79 81 82 85 86 -87 -88 90 91 93 94 -98 99 -100 0
x 1 3 -4 6 7 -9 -11 13 14 -15 16 -20 -21 -22 24 25 26 -27 28 30 31 -36 37 -40 -48 -52 -53 -54 -55 -56 60 -62 63 68 -70 77 78 79 -80 -82 -85 -91 92 -93 -94 -99 0
x 1 -2 5 -6 7 9 -10 -12 18 -19 -24 25 -26 -27 29 -30 -31 -32 -34 35 -37 38 -39 -41 44 -45 49 -52 -53 -55 -56 57 -58 60 61 62 65 67 68 70 -72 -73 -78 -80 82 85 -88 92 93 94 -96 97 -100 0
x 5 -6 -7 -9 10 11 -12 13 15 -16 17 18 19 22 23 -25 27 29 -30 -31 32 -33 -34 -37 38 -41 -42 43 44 -45 -48 -49 -50 -52 -53 -54 57 -68 -70 71 -74 78 -79 80 -82 83 -85 -86 87 -88 89 -90 92 94 96 0
